120
1000
200
200
200
200
200
199
199
199
198
197
197
196
196
194
194
193
193
193
193
193
193
191
191
191
190
189
189
188
187
187
187
187
187
187
185
185
184
184
184
184
184
184
183
182
182
182
182
181
180
180
180
179
178
178
178
177
177
177
177
177
177
176
176
175
175
175
175
174
174
174
173
173
172
171
170
169
169
169
169
168
166
166
166
166
165
165
165
165
164
164
164
163
162
162
161
160
160
160
159
157
157
156
156
156
156
156
155
155
155
154
153
153
153
153
152
152
151
151
150
150
